p cnf 27 70
a 7 0
e 1 2 3 4 5 6 8 9 10 11 12 13 14 15 16 17 18 19 20 21 22 23 24 25 26 27 0
3 2 0
3 -2 0
1 3 -4 0
-1 -3 -4 0
1 -3 4 0
-1 3 4 0
-5 6 0
5 6 0
6 -3 -7 0
-6 3 -7 0
6 3 7 0
-6 -3 7 0
-9 5 0
-9 -8 0
-5 8 9 0
7 -9 -10 0
-7 9 -10 0
7 9 10 0
-7 -9 10 0
-11 -4 0
-11 10 0
4 -10 11 0
14 -12 0
14 -13 0
12 13 -14 0
15 -12 0
15 12 0
-5 -16 0
5 -16 0
15 -16 -17 0
-15 16 -17 0
15 16 17 0
-15 -16 17 0
-19 18 0
-19 -5 0
-18 5 19 0
-17 19 -20 0
17 -19 -20 0
-17 -19 20 0
17 19 20 0
-14 -20 -21 0
14 20 -21 0
-14 20 21 0
14 -20 21 0
-5 -22 -23 0
5 22 -23 0
-5 22 23 0
5 -22 23 0
-3 2 -24 0
3 -2 -24 0
-3 -2 24 0
3 2 24 0
23 24 -25 0
-23 -24 -25 0
23 -24 25 0
-23 24 25 0
-21 25 -26 0
21 -25 -26 0
-21 -25 26 0
21 25 26 0
27 11 0
27 26 0
-11 -26 -27 0
-19 23 -22 21 11 -7 0
-10 13 -5 18 2 -25 0
-22 14 -13 -26 19 -4 0
7 16 13 -12 -24 0
12 21 -18 9 -10 0
8 16 26 7 14 0
27 0
